&BANDS
    prefix = '__prefix__'
    outdir = '/home/exadmin/data/exadmin-default/new-job-aug-21st-2017-18-47-pm-cmF9STjvfyTkoJcte/outdir'
    filband = '/home/exadmin/data/exadmin-default/new-job-aug-21st-2017-18-47-pm-cmF9STjvfyTkoJcte/bands.dat'
    no_overlap = .true.
/
