&PROJWFC
    prefix = '__prefix__'
    outdir = '/home/exadmin/data/exadmin-default/new-job-aug-21st-2017-18-47-pm-cmF9STjvfyTkoJcte/outdir'
    degauss = 0.01
    deltaE = 0.05
/
